objective value:                                11600
t_x_0                                               1 	(obj:5)
t_x_2                                               1 	(obj:7)
t_x_6                                               1 	(obj:6)
t_x_10                                              1 	(obj:72)
t_x_12                                              1 	(obj:1)
t_x_16                                              1 	(obj:37)
t_x_18                                              1 	(obj:4)
t_x_25                                              1 	(obj:13)
t_x_26                                              1 	(obj:54)
t_x_30                                              1 	(obj:26)
t_x_31                                              1 	(obj:28)
t_x_34                                              1 	(obj:20)
t_x_37                                              1 	(obj:4)
t_x_39                                              1 	(obj:9)
t_x_43                                              1 	(obj:3)
t_x_44                                              1 	(obj:26)
t_x_45                                              1 	(obj:36)
t_x_49                                              1 	(obj:10)
t_x_52                                              1 	(obj:21)
t_x_53                                              1 	(obj:16)
t_x_58                                              1 	(obj:50)
t_x_60                                              1 	(obj:21)
t_x_62                                              1 	(obj:39)
t_x_64                                              1 	(obj:18)
t_x_67                                              1 	(obj:16)
t_x_70                                              1 	(obj:57)
t_x_74                                              1 	(obj:32)
t_x_76                                              1 	(obj:10)
t_x_77                                              1 	(obj:12)
t_x_78                                              1 	(obj:58)
t_x_81                                              1 	(obj:29)
t_x_84                                              1 	(obj:37)
t_x_85                                              1 	(obj:36)
t_x_89                                              1 	(obj:28)
t_x_90                                              1 	(obj:71)
t_x_92                                              1 	(obj:52)
t_x_94                                              1 	(obj:2)
t_x_97                                              1 	(obj:6)
t_x_101                                             1 	(obj:16)
t_x_102                                             1 	(obj:17)
t_x_103                                             1 	(obj:38)
t_x_104                                             1 	(obj:17)
t_x_109                                             1 	(obj:48)
t_x_128                                             1 	(obj:19)
t_x_131                                             1 	(obj:1)
t_x_133                                             1 	(obj:44)
t_x_136                                             1 	(obj:3)
t_x_141                                             1 	(obj:2)
t_x_144                                             1 	(obj:3)
t_x_147                                             1 	(obj:7)
t_x_159                                             1 	(obj:28)
t_x_160                                             1 	(obj:1)
t_x_162                                             1 	(obj:34)
t_x_174                                             1 	(obj:4)
t_x_181                                             1 	(obj:57)
t_x_182                                             1 	(obj:2)
t_x_187                                             1 	(obj:16)
t_x_197                                             1 	(obj:12)
t_x_199                                             1 	(obj:28)
t_x_201                                             1 	(obj:5)
t_x_205                                             1 	(obj:1)
t_x_206                                             1 	(obj:24)
t_x_207                                             1 	(obj:6)
t_x_211                                             1 	(obj:23)
t_x_222                                             1 	(obj:10)
t_x_223                                             1 	(obj:9)
t_x_232                                             1 	(obj:18)
t_x_233                                             1 	(obj:0)
t_x_237                                             1 	(obj:20)
t_x_240                                             1 	(obj:3)
t_x_245                                             1 	(obj:39)
t_x_246                                             1 	(obj:3)
t_x_247                                             1 	(obj:22)
t_x_250                                             1 	(obj:19)
t_x_256                                             1 	(obj:31)
t_x_267                                             1 	(obj:23)
t_x_269                                             1 	(obj:24)
t_x_276                                             1 	(obj:21)
t_x_279                                             1 	(obj:55)
t_x_280                                             1 	(obj:9)
t_x_283                                             1 	(obj:51)
t_x_284                                             1 	(obj:14)
t_x_290                                             1 	(obj:10)
t_x_291                                             1 	(obj:12)
t_x_294                                             1 	(obj:3)
t_x_295                                             1 	(obj:29)
t_x_299                                             1 	(obj:10)
t_x_308                                             1 	(obj:8)
t_x_313                                             1 	(obj:5)
t_x_316                                             1 	(obj:12)
t_x_319                                             1 	(obj:32)
t_x_324                                             1 	(obj:35)
t_x_325                                             1 	(obj:5)
t_x_327                                             1 	(obj:9)
t_x_328                                             1 	(obj:8)
t_x_331                                             1 	(obj:4)
t_x_334                                             1 	(obj:7)
t_x_335                                             1 	(obj:46)
t_x_337                                             1 	(obj:38)
t_x_343                                             1 	(obj:13)
t_x_345                                             1 	(obj:22)
t_x_346                                             1 	(obj:27)
t_x_348                                             1 	(obj:21)
t_x_356                                             1 	(obj:5)
t_x_357                                             1 	(obj:5)
t_x_364                                             1 	(obj:5)
t_x_365                                             1 	(obj:4)
t_x_374                                             1 	(obj:24)
t_x_383                                             1 	(obj:9)
t_x_392                                             1 	(obj:42)
t_x_396                                             1 	(obj:21)
t_x_403                                             1 	(obj:12)
t_x_406                                             1 	(obj:5)
t_x_407                                             1 	(obj:1)
t_x_409                                             1 	(obj:1)
t_x_413                                             1 	(obj:31)
t_x_414                                             1 	(obj:5)
t_x_418                                             1 	(obj:25)
t_x_420                                             1 	(obj:5)
t_x_423                                             1 	(obj:54)
t_x_437                                             1 	(obj:8)
t_x_439                                             1 	(obj:29)
t_x_441                                             1 	(obj:10)
t_x_448                                             1 	(obj:27)
t_x_459                                             1 	(obj:9)
t_x_462                                             1 	(obj:71)
t_x_465                                             1 	(obj:1)
t_x_467                                             1 	(obj:34)
t_x_478                                             1 	(obj:3)
t_x_479                                             1 	(obj:3)
t_x_480                                             1 	(obj:20)
t_x_490                                             1 	(obj:0)
t_x_493                                             1 	(obj:13)
t_x_494                                             1 	(obj:22)
t_x_496                                             1 	(obj:12)
t_x_497                                             1 	(obj:13)
t_x_499                                             1 	(obj:47)
t_x_503                                             1 	(obj:13)
t_x_505                                             1 	(obj:33)
t_x_506                                             1 	(obj:32)
t_x_507                                             1 	(obj:15)
t_x_508                                             1 	(obj:33)
t_x_509                                             1 	(obj:7)
t_x_513                                             1 	(obj:7)
t_x_516                                             1 	(obj:34)
t_x_517                                             1 	(obj:18)
t_x_519                                             1 	(obj:20)
t_x_521                                             1 	(obj:0)
t_x_526                                             1 	(obj:39)
t_x_530                                             1 	(obj:19)
t_x_533                                             1 	(obj:11)
t_x_542                                             1 	(obj:24)
t_x_546                                             1 	(obj:4)
t_x_547                                             1 	(obj:26)
t_x_549                                             1 	(obj:11)
t_x_559                                             1 	(obj:70)
t_x_563                                             1 	(obj:9)
t_x_564                                             1 	(obj:13)
t_x_565                                             1 	(obj:29)
t_x_572                                             1 	(obj:87)
t_x_576                                             1 	(obj:9)
t_x_577                                             1 	(obj:7)
t_x_581                                             1 	(obj:28)
t_x_582                                             1 	(obj:32)
t_x_585                                             1 	(obj:1)
t_x_589                                             1 	(obj:10)
t_x_591                                             1 	(obj:8)
t_x_594                                             1 	(obj:16)
t_x_595                                             1 	(obj:12)
t_x_603                                             1 	(obj:13)
t_x_606                                             1 	(obj:2)
t_x_609                                             1 	(obj:33)
t_x_610                                             1 	(obj:27)
t_x_618                                             1 	(obj:8)
t_x_620                                             1 	(obj:28)
t_x_621                                             1 	(obj:1)
t_x_622                                             1 	(obj:51)
t_x_624                                             1 	(obj:28)
t_x_627                                             1 	(obj:14)
t_x_629                                             1 	(obj:10)
t_x_630                                             1 	(obj:19)
t_x_631                                             1 	(obj:7)
t_x_635                                             1 	(obj:54)
t_x_638                                             1 	(obj:11)
t_x_640                                             1 	(obj:2)
t_x_643                                             1 	(obj:9)
t_x_644                                             1 	(obj:1)
t_x_645                                             1 	(obj:34)
t_x_647                                             1 	(obj:9)
t_x_648                                             1 	(obj:11)
t_x_651                                             1 	(obj:28)
t_x_654                                             1 	(obj:2)
t_x_656                                             1 	(obj:20)
t_x_660                                             1 	(obj:19)
t_x_661                                             1 	(obj:44)
t_x_666                                             1 	(obj:0)
t_x_668                                             1 	(obj:26)
t_x_669                                             1 	(obj:49)
t_x_671                                             1 	(obj:7)
t_x_672                                             1 	(obj:26)
t_x_674                                             1 	(obj:16)
t_x_675                                             1 	(obj:4)
t_x_679                                             1 	(obj:37)
t_x_681                                             1 	(obj:11)
t_x_682                                             1 	(obj:9)
t_x_684                                             1 	(obj:11)
t_x_685                                             1 	(obj:9)
t_x_686                                             1 	(obj:29)
t_x_690                                             1 	(obj:6)
t_x_693                                             1 	(obj:30)
t_x_701                                             1 	(obj:7)
t_x_702                                             1 	(obj:0)
t_x_703                                             1 	(obj:33)
t_x_705                                             1 	(obj:11)
t_x_710                                             1 	(obj:2)
t_x_719                                             1 	(obj:43)
t_x_720                                             1 	(obj:20)
t_x_729                                             1 	(obj:37)
t_x_734                                             1 	(obj:18)
t_x_738                                             1 	(obj:31)
t_x_740                                             1 	(obj:12)
t_x_743                                             1 	(obj:5)
t_x_745                                             1 	(obj:23)
t_x_748                                             1 	(obj:14)
t_x_750                                             1 	(obj:11)
t_x_754                                             1 	(obj:37)
t_x_755                                             1 	(obj:6)
t_x_756                                             1 	(obj:9)
t_x_758                                             1 	(obj:26)
t_x_762                                             1 	(obj:17)
t_x_763                                             1 	(obj:7)
t_x_770                                             1 	(obj:4)
t_x_773                                             1 	(obj:21)
t_x_777                                             1 	(obj:53)
t_x_779                                             1 	(obj:6)
t_x_780                                             1 	(obj:54)
t_x_784                                             1 	(obj:9)
t_x_794                                             1 	(obj:0)
t_x_796                                             1 	(obj:65)
t_x_806                                             1 	(obj:41)
t_x_809                                             1 	(obj:7)
t_x_813                                             1 	(obj:27)
t_x_814                                             1 	(obj:24)
t_x_822                                             1 	(obj:27)
t_x_826                                             1 	(obj:8)
t_x_830                                             1 	(obj:11)
t_x_832                                             1 	(obj:54)
t_x_836                                             1 	(obj:30)
t_x_840                                             1 	(obj:4)
t_x_842                                             1 	(obj:8)
t_x_844                                             1 	(obj:31)
t_x_849                                             1 	(obj:8)
t_x_855                                             1 	(obj:4)
t_x_856                                             1 	(obj:40)
t_x_859                                             1 	(obj:31)
t_x_863                                             1 	(obj:12)
t_x_874                                             1 	(obj:37)
t_x_875                                             1 	(obj:5)
t_x_876                                             1 	(obj:42)
t_x_882                                             1 	(obj:4)
t_x_884                                             1 	(obj:8)
t_x_887                                             1 	(obj:25)
t_x_888                                             1 	(obj:7)
t_x_889                                             1 	(obj:5)
t_x_891                                             1 	(obj:30)
t_x_892                                             1 	(obj:24)
t_x_893                                             1 	(obj:8)
t_x_894                                             1 	(obj:18)
t_x_897                                             1 	(obj:6)
t_x_903                                             1 	(obj:14)
t_x_907                                             1 	(obj:36)
t_x_912                                             1 	(obj:51)
t_x_918                                             1 	(obj:15)
t_x_920                                             1 	(obj:21)
t_x_926                                             1 	(obj:23)
t_x_929                                             1 	(obj:28)
t_x_932                                             1 	(obj:19)
t_x_934                                             1 	(obj:46)
t_x_936                                             1 	(obj:7)
t_x_937                                             1 	(obj:24)
t_x_957                                             1 	(obj:0)
t_x_958                                             1 	(obj:51)
t_x_960                                             1 	(obj:8)
t_x_963                                             1 	(obj:17)
t_x_964                                             1 	(obj:17)
t_x_971                                             1 	(obj:14)
t_x_975                                             1 	(obj:9)
t_x_976                                             1 	(obj:6)
t_x_977                                             1 	(obj:9)
t_x_978                                             1 	(obj:1)
t_x_986                                             1 	(obj:9)
t_x_987                                             1 	(obj:40)
t_x_988                                             1 	(obj:14)
t_x_991                                             1 	(obj:20)
t_x_994                                             1 	(obj:27)
t_x_995                                             1 	(obj:25)
t_x_996                                             1 	(obj:10)
t_x_1003                                            1 	(obj:34)
t_x_1004                                            1 	(obj:17)
t_x_1005                                            1 	(obj:15)
t_x_1007                                            1 	(obj:33)
t_x_1008                                            1 	(obj:28)
t_x_1013                                            1 	(obj:1)
t_x_1015                                            1 	(obj:1)
t_x_1018                                            1 	(obj:40)
t_x_1020                                            1 	(obj:39)
t_x_1021                                            1 	(obj:62)
t_x_1032                                            1 	(obj:4)
t_x_1038                                            1 	(obj:1)
t_x_1047                                            1 	(obj:8)
t_x_1048                                            1 	(obj:12)
t_x_1054                                            1 	(obj:18)
t_x_1055                                            1 	(obj:4)
t_x_1065                                            1 	(obj:42)
t_x_1070                                            1 	(obj:55)
t_x_1073                                            1 	(obj:42)
t_x_1074                                            1 	(obj:8)
t_x_1076                                            1 	(obj:1)
t_x_1079                                            1 	(obj:3)
t_x_1080                                            1 	(obj:10)
t_x_1085                                            1 	(obj:28)
t_x_1086                                            1 	(obj:33)
t_x_1087                                            1 	(obj:15)
t_x_1091                                            1 	(obj:11)
t_x_1092                                            1 	(obj:7)
t_x_1098                                            1 	(obj:11)
t_x_1099                                            1 	(obj:18)
t_x_1100                                            1 	(obj:45)
t_x_1110                                            1 	(obj:26)
t_x_1114                                            1 	(obj:17)
t_x_1115                                            1 	(obj:8)
t_x_1118                                            1 	(obj:17)
t_x_1125                                            1 	(obj:7)
t_x_1126                                            1 	(obj:8)
t_x_1131                                            1 	(obj:14)
t_x_1132                                            1 	(obj:3)
t_x_1134                                            1 	(obj:34)
t_x_1135                                            1 	(obj:6)
t_x_1136                                            1 	(obj:27)
t_x_1137                                            1 	(obj:9)
t_x_1140                                            1 	(obj:32)
t_x_1142                                            1 	(obj:1)
t_x_1158                                            1 	(obj:40)
t_x_1159                                            1 	(obj:13)
t_x_1168                                            1 	(obj:23)
t_x_1169                                            1 	(obj:45)
t_x_1171                                            1 	(obj:5)
t_x_1173                                            1 	(obj:34)
t_x_1175                                            1 	(obj:7)
t_x_1178                                            1 	(obj:22)
t_x_1180                                            1 	(obj:12)
t_x_1182                                            1 	(obj:49)
t_x_1192                                            1 	(obj:7)
t_x_1199                                            1 	(obj:35)
t_x_1201                                            1 	(obj:5)
t_x_1202                                            1 	(obj:16)
t_x_1213                                            1 	(obj:11)
t_x_1215                                            1 	(obj:1)
t_x_1219                                            1 	(obj:29)
t_x_1220                                            1 	(obj:0)
t_x_1225                                            1 	(obj:29)
t_x_1230                                            1 	(obj:19)
t_x_1232                                            1 	(obj:5)
t_x_1233                                            1 	(obj:24)
t_x_1234                                            1 	(obj:2)
t_x_1243                                            1 	(obj:27)
t_x_1244                                            1 	(obj:38)
t_x_1248                                            1 	(obj:15)
t_x_1251                                            1 	(obj:12)
t_x_1252                                            1 	(obj:1)
t_x_1254                                            1 	(obj:6)
t_x_1268                                            1 	(obj:16)
t_x_1275                                            1 	(obj:21)
t_x_1278                                            1 	(obj:2)
t_x_1281                                            1 	(obj:47)
t_x_1282                                            1 	(obj:10)
t_x_1284                                            1 	(obj:8)
t_x_1286                                            1 	(obj:0)
t_x_1288                                            1 	(obj:25)
t_x_1294                                            1 	(obj:10)
t_x_1302                                            1 	(obj:14)
t_x_1304                                            1 	(obj:5)
t_x_1306                                            1 	(obj:16)
t_x_1308                                            1 	(obj:15)
t_x_1309                                            1 	(obj:26)
t_x_1322                                            1 	(obj:19)
t_x_1324                                            1 	(obj:31)
t_x_1330                                            1 	(obj:4)
t_x_1334                                            1 	(obj:35)
t_x_1337                                            1 	(obj:3)
t_x_1338                                            1 	(obj:9)
t_x_1341                                            1 	(obj:1)
t_x_1343                                            1 	(obj:22)
t_x_1354                                            1 	(obj:42)
t_x_1359                                            1 	(obj:7)
t_x_1361                                            1 	(obj:16)
t_x_1362                                            1 	(obj:9)
t_x_1363                                            1 	(obj:4)
t_x_1364                                            1 	(obj:5)
t_x_1366                                            1 	(obj:7)
t_x_1369                                            1 	(obj:27)
t_x_1386                                            1 	(obj:11)
t_x_1387                                            1 	(obj:43)
t_x_1390                                            1 	(obj:8)
t_x_1392                                            1 	(obj:16)
t_x_1395                                            1 	(obj:4)
t_x_1399                                            1 	(obj:29)
t_x_1402                                            1 	(obj:47)
t_x_1403                                            1 	(obj:21)
t_x_1404                                            1 	(obj:27)
t_x_1406                                            1 	(obj:13)
t_x_1412                                            1 	(obj:11)
t_x_1418                                            1 	(obj:36)
t_x_1420                                            1 	(obj:15)
t_x_1423                                            1 	(obj:6)
t_x_1428                                            1 	(obj:32)
t_x_1429                                            1 	(obj:24)
t_x_1430                                            1 	(obj:38)
t_x_1431                                            1 	(obj:33)
t_x_1434                                            1 	(obj:9)
t_x_1436                                            1 	(obj:26)
t_x_1443                                            1 	(obj:35)
t_x_1447                                            1 	(obj:21)
t_x_1448                                            1 	(obj:36)
t_x_1451                                            1 	(obj:6)
t_x_1452                                            1 	(obj:17)
t_x_1459                                            1 	(obj:46)
t_x_1465                                            1 	(obj:15)
t_x_1470                                            1 	(obj:13)
t_x_1471                                            1 	(obj:17)
t_x_1473                                            1 	(obj:4)
t_x_1476                                            1 	(obj:59)
t_x_1483                                            1 	(obj:14)
t_x_1487                                            1 	(obj:0)
t_x_1488                                            1 	(obj:8)
t_x_1492                                            1 	(obj:71)
t_x_1495                                            1 	(obj:21)
t_x_1497                                            1 	(obj:6)
t_x_1500                                            1 	(obj:12)
t_x_1503                                            1 	(obj:25)
t_x_1504                                            1 	(obj:19)
t_x_1513                                            1 	(obj:7)
t_x_1519                                            1 	(obj:25)
t_x_1520                                            1 	(obj:32)
t_x_1524                                            1 	(obj:11)
t_x_1526                                            1 	(obj:17)
t_x_1533                                            1 	(obj:20)
t_x_1535                                            1 	(obj:28)
t_x_1541                                            1 	(obj:34)
t_x_1542                                            1 	(obj:16)
t_x_1543                                            1 	(obj:19)
t_x_1547                                            1 	(obj:6)
t_x_1548                                            1 	(obj:19)
t_x_1550                                            1 	(obj:43)
t_x_1554                                            1 	(obj:1)
t_x_1560                                            1 	(obj:29)
t_x_1561                                            1 	(obj:25)
t_x_1562                                            1 	(obj:19)
t_x_1567                                            1 	(obj:7)
t_x_1568                                            1 	(obj:13)
t_x_1569                                            1 	(obj:5)
t_x_1576                                            1 	(obj:19)
t_x_1577                                            1 	(obj:38)
t_x_1581                                            1 	(obj:35)
t_x_1582                                            1 	(obj:10)
t_x_1583                                            1 	(obj:56)
t_x_1590                                            1 	(obj:5)
t_x_1591                                            1 	(obj:15)
t_x_1596                                            1 	(obj:1)
t_x_1603                                            1 	(obj:14)
t_x_1604                                            1 	(obj:5)
t_x_1605                                            1 	(obj:25)
t_x_1608                                            1 	(obj:30)
t_x_1609                                            1 	(obj:11)
t_x_1612                                            1 	(obj:17)
t_x_1615                                            1 	(obj:41)
t_x_1617                                            1 	(obj:6)
t_x_1624                                            1 	(obj:21)
t_x_1627                                            1 	(obj:22)
t_x_1629                                            1 	(obj:18)
t_x_1636                                            1 	(obj:7)
t_x_1639                                            1 	(obj:7)
t_x_1640                                            1 	(obj:32)
t_x_1642                                            1 	(obj:23)
t_x_1653                                            1 	(obj:39)
t_x_1655                                            1 	(obj:3)
t_x_1658                                            1 	(obj:17)
t_x_1660                                            1 	(obj:13)
t_x_1666                                            1 	(obj:12)
t_x_1667                                            1 	(obj:17)
t_x_1669                                            1 	(obj:0)
t_x_1680                                            1 	(obj:21)
t_x_1681                                            1 	(obj:14)
t_x_1682                                            1 	(obj:14)
t_x_1684                                            1 	(obj:11)
t_x_1688                                            1 	(obj:33)
t_x_1689                                            1 	(obj:18)
t_x_1694                                            1 	(obj:16)
t_x_1695                                            1 	(obj:17)
t_x_1696                                            1 	(obj:34)
t_x_1701                                            1 	(obj:4)
t_x_1703                                            1 	(obj:27)
t_x_1711                                            1 	(obj:42)
t_x_1712                                            1 	(obj:34)
t_x_1725                                            1 	(obj:42)
t_x_1729                                            1 	(obj:9)
t_x_1731                                            1 	(obj:59)
t_x_1732                                            1 	(obj:9)
t_x_1733                                            1 	(obj:6)
t_x_1739                                            1 	(obj:21)
t_x_1740                                            1 	(obj:31)
t_x_1742                                            1 	(obj:1)
t_x_1743                                            1 	(obj:14)
t_x_1744                                            1 	(obj:0)
t_x_1747                                            1 	(obj:26)
t_x_1749                                            1 	(obj:6)
t_x_1751                                            1 	(obj:21)
t_x_1755                                            1 	(obj:9)
t_x_1758                                            1 	(obj:26)
t_x_1760                                            1 	(obj:24)
t_x_1761                                            1 	(obj:44)
t_x_1764                                            1 	(obj:2)
t_x_1765                                            1 	(obj:0)
t_x_1767                                            1 	(obj:4)
t_x_1769                                            1 	(obj:17)
t_x_1771                                            1 	(obj:0)
t_x_1774                                            1 	(obj:72)
t_x_1776                                            1 	(obj:10)
t_x_1778                                            1 	(obj:37)
t_x_1782                                            1 	(obj:1)
t_x_1783                                            1 	(obj:10)
t_x_1789                                            1 	(obj:14)
t_x_1795                                            1 	(obj:21)
t_x_1798                                            1 	(obj:10)
t_x_1799                                            1 	(obj:54)
t_x_1801                                            1 	(obj:15)
t_x_1805                                            1 	(obj:42)
t_x_1808                                            1 	(obj:10)
t_x_1815                                            1 	(obj:36)
t_x_1816                                            1 	(obj:0)
t_x_1818                                            1 	(obj:35)
t_x_1823                                            1 	(obj:5)
t_x_1825                                            1 	(obj:22)
t_x_1826                                            1 	(obj:5)
t_x_1827                                            1 	(obj:12)
t_x_1832                                            1 	(obj:16)
t_x_1834                                            1 	(obj:0)
t_x_1838                                            1 	(obj:14)
t_x_1841                                            1 	(obj:19)
t_x_1843                                            1 	(obj:43)
t_x_1845                                            1 	(obj:25)
t_x_1851                                            1 	(obj:30)
t_x_1855                                            1 	(obj:23)
t_x_1856                                            1 	(obj:32)
t_x_1862                                            1 	(obj:12)
t_x_1865                                            1 	(obj:20)
t_x_1869                                            1 	(obj:44)
t_x_1872                                            1 	(obj:1)
t_x_1874                                            1 	(obj:21)
t_x_1877                                            1 	(obj:71)
t_x_1879                                            1 	(obj:11)
t_x_1884                                            1 	(obj:65)
t_x_1885                                            1 	(obj:0)
t_x_1886                                            1 	(obj:22)
t_x_1887                                            1 	(obj:45)
t_x_1889                                            1 	(obj:16)
t_x_1894                                            1 	(obj:23)
t_x_1898                                            1 	(obj:8)
t_x_1900                                            1 	(obj:13)
t_x_1910                                            1 	(obj:27)
t_x_1912                                            1 	(obj:15)
t_x_1916                                            1 	(obj:4)
t_x_1921                                            1 	(obj:1)
t_x_1924                                            1 	(obj:15)
t_x_1927                                            1 	(obj:3)
t_x_1929                                            1 	(obj:0)
t_x_1934                                            1 	(obj:8)
t_x_1937                                            1 	(obj:36)
t_x_1939                                            1 	(obj:23)
t_x_1946                                            1 	(obj:3)
t_x_1947                                            1 	(obj:11)
t_x_1950                                            1 	(obj:18)
t_x_1951                                            1 	(obj:21)
t_x_1952                                            1 	(obj:21)
t_x_1962                                            1 	(obj:19)
t_x_1964                                            1 	(obj:10)
t_x_1970                                            1 	(obj:7)
t_x_1973                                            1 	(obj:38)
t_x_1974                                            1 	(obj:14)
t_x_1976                                            1 	(obj:7)
t_x_1983                                            1 	(obj:27)
t_x_1984                                            1 	(obj:7)
t_x_1986                                            1 	(obj:18)
t_x_1990                                            1 	(obj:24)
t_x_1992                                            1 	(obj:0)
t_x_1995                                            1 	(obj:19)
